p cnf 114 169               
7 -76 0
4 -47 0
-2 -1 -37 0
37 -43 0
-1 38 0
-2 38 0
1 2 -38 0
-38 -3 -39 0
39 -43 0
-3 40 0
-38 40 0
3 38 -40 0
-40 -4 -41 0
41 -43 0
-4 42 0
-40 42 0
4 40 -42 0
42 -43 0
43 -47 0
12 -57 0
-9 1 -48 0
48 -52 0
-10 2 -49 0
49 -52 0
-11 3 -50 0
50 -52 0
-12 4 -51 0
51 -52 0
-42 52 -53 0
53 -57 0
47 57 -61 0
61 -76 0
6 -75 0
61 -75 0
5 -74 0
61 -74 0
8 -73 0
3 -46 0
43 -46 0
11 -56 0
53 -56 0
46 56 -60 0
60 -73 0
6 -71 0
60 -71 0
5 -70 0
60 -70 0
8 -69 0
2 -45 0
43 -45 0
10 -55 0
53 -55 0
45 55 -59 0
59 -69 0
7 -68 0
59 -68 0
5 -66 0
59 -66 0
8 -65 0
1 -44 0
43 -44 0
9 -54 0
53 -54 0
44 54 -58 0
58 -65 0
7 -64 0
58 -64 0
6 -63 0
58 -63 0
76 75 74 73 71 70 69 68 66 65 64 63 78 0
-78 -79 0
-6 -5 -13 0
13 -19 0
-5 14 0
-6 14 0
5 6 -14 0
-14 -7 -15 0
15 -19 0
-7 16 0
-14 16 0
7 14 -16 0
-16 -8 -17 0
17 -19 0
8 16 -18 0
18 -19 0
19 -79 0
-10 -9 -20 0
20 -26 0
-9 21 0
-10 21 0
9 10 -21 0
-21 -11 -22 0
22 -26 0
-11 23 0
-21 23 0
11 21 -23 0
-23 -12 -24 0
24 -26 0
12 23 -25 0
25 -26 0
26 -79 0
-5 1 -27 0
27 -31 0
-6 2 -28 0
28 -31 0
-7 3 -29 0
29 -31 0
-8 4 -30 0
30 -31 0
31 -79 0
-1 5 -32 0
32 -36 0
-2 6 -33 0
33 -36 0
-3 7 -34 0
34 -36 0
-4 8 -35 0
35 -36 0
36 -79 0
-1 2 -80 0
80 -90 0
-1 -2 81 0
1 2 81 0
-2 2 81 0
-5 6 -82 0
-81 82 -83 0
83 -90 0
-5 -6 84 0
5 6 84 0
-6 6 84 0
-81 -84 85 0
-9 10 -86 0
-85 86 -87 0
87 -90 0
90 -113 0
-2 3 -91 0
91 -101 0
-2 -3 92 0
2 3 92 0
-3 3 92 0
-6 7 -93 0
-92 93 -94 0
94 -101 0
-6 -7 95 0
6 7 95 0
-7 7 95 0
-92 -95 96 0
-10 11 -97 0
-96 97 -98 0
98 -101 0
101 -113 0
-3 4 -102 0
102 -112 0
-3 -4 103 0
3 4 103 0
-4 4 103 0
-7 8 -104 0
-103 104 -105 0
105 -112 0
-7 -8 106 0
7 8 106 0
-8 8 106 0
-103 -106 107 0
-11 12 -108 0
-107 108 -109 0
109 -112 0
112 -113 0
79 0
113 0
